31028
54,267,593,732,744,757,776,851,921,1057,1115,1117,1182,1250,1352,1585,1657,1890,1938,2089,2095,2132,2388,2416,2453,2501,2504,2551,2627,2649,2662,3013,3052,3155,3175,3501,3581,3679,3682,3789,4001,4006,4010,4018,4046,4316,4336,4353,4541,4609,4732,4778,4956
